0 0 0 0
0 1 1 0
0 2 0 0
0 3 0 0
0 4 0 5
0 5 0 5
0 6 0 5
0 7 0 5
0 8 0 9
0 9 0 5
0 10 0 9
0 11 0 15
0 12 0 15
0 13 0 19
0 14 0 19
0 15 0 24
0 16 0 26
0 17 0 24
0 18 1 9
0 19 0 24
0 20 0 27
0 21 0 25
0 22 0 29
0 23 0 27
0 24 0 17
0 25 0 17
0 26 0 9
0 27 0 32
0 28 0 33
0 29 0 28
0 30 0 29
0 31 0 36
